p edge 80 480
e 1 11
e 1 16
e 1 19
e 1 22
e 1 69
e 1 80
e 2 20
e 2 23
e 2 26
e 2 28
e 2 65
e 2 78
e 3 10
e 3 15
e 3 30
e 3 54
e 3 54
e 3 78
e 4 3
e 4 10
e 4 11
e 4 48
e 4 53
e 4 76
e 5 8
e 5 11
e 5 24
e 5 31
e 5 32
e 5 57
e 6 2
e 6 3
e 6 14
e 6 23
e 6 67
e 6 77
e 7 18
e 7 48
e 7 53
e 7 74
e 7 78
e 7 78
e 8 21
e 8 27
e 8 35
e 8 37
e 8 46
e 8 49
e 9 6
e 9 7
e 9 36
e 9 40
e 9 45
e 9 51
e 10 1
e 10 29
e 10 44
e 10 46
e 10 47
e 10 70
e 11 17
e 11 42
e 11 43
e 11 64
e 11 67
e 11 77
e 12 31
e 12 38
e 12 49
e 12 64
e 12 67
e 12 78
e 13 10
e 13 31
e 13 43
e 13 46
e 13 51
e 13 78
e 14 25
e 14 34
e 14 38
e 14 45
e 14 50
e 14 66
e 15 3
e 15 24
e 15 40
e 15 52
e 15 61
e 15 78
e 16 41
e 16 42
e 16 46
e 16 57
e 16 58
e 16 64
e 17 10
e 17 29
e 17 39
e 17 42
e 17 46
e 17 76
e 18 20
e 18 29
e 18 36
e 18 59
e 18 59
e 18 78
e 19 18
e 19 43
e 19 44
e 19 50
e 19 52
e 19 67
e 20 24
e 20 43
e 20 43
e 20 66
e 20 75
e 20 78
e 21 11
e 21 26
e 21 33
e 21 35
e 21 67
e 21 70
e 22 13
e 22 29
e 22 33
e 22 35
e 22 61
e 22 62
e 23 11
e 23 16
e 23 46
e 23 51
e 23 71
e 23 72
e 24 3
e 24 8
e 24 12
e 24 40
e 24 69
e 24 78
e 25 1
e 25 2
e 25 10
e 25 27
e 25 57
e 25 73
e 26 10
e 26 37
e 26 56
e 26 66
e 26 67
e 26 79
e 27 2
e 27 21
e 27 40
e 27 46
e 27 52
e 27 67
e 28 35
e 28 42
e 28 44
e 28 47
e 28 73
e 28 79
e 29 12
e 29 23
e 29 28
e 29 32
e 29 51
e 29 79
e 30 5
e 30 20
e 30 32
e 30 53
e 30 57
e 30 65
e 31 12
e 31 20
e 31 26
e 31 60
e 31 75
e 31 77
e 32 34
e 32 37
e 32 42
e 32 59
e 32 61
e 32 65
e 33 9
e 33 30
e 33 44
e 33 57
e 33 68
e 33 74
e 34 25
e 34 42
e 34 69
e 34 70
e 34 75
e 34 80
e 35 40
e 35 41
e 35 56
e 35 62
e 35 70
e 35 79
e 36 1
e 36 2
e 36 28
e 36 66
e 36 77
e 36 78
e 37 14
e 37 50
e 37 51
e 37 61
e 37 71
e 37 77
e 38 6
e 38 25
e 38 49
e 38 58
e 38 62
e 38 80
e 39 41
e 39 42
e 39 47
e 39 49
e 39 62
e 39 80
e 40 22
e 40 43
e 40 47
e 40 53
e 40 55
e 40 72
e 41 6
e 41 44
e 41 60
e 41 64
e 41 66
e 41 73
e 42 34
e 42 63
e 42 69
e 42 72
e 42 79
e 42 80
e 43 4
e 43 23
e 43 47
e 43 74
e 43 74
e 43 79
e 44 13
e 44 23
e 44 24
e 44 48
e 44 60
e 44 67
e 45 16
e 45 22
e 45 30
e 45 52
e 45 75
e 45 76
e 46 3
e 46 5
e 46 11
e 46 59
e 46 70
e 46 80
e 47 2
e 47 14
e 47 20
e 47 51
e 47 66
e 47 70
e 48 17
e 48 20
e 48 27
e 48 50
e 48 52
e 48 52
e 49 5
e 49 38
e 49 48
e 49 65
e 49 73
e 49 76
e 50 22
e 50 26
e 50 42
e 50 47
e 50 51
e 50 58
e 51 36
e 51 39
e 51 41
e 51 56
e 51 77
e 51 78
e 52 11
e 52 19
e 52 38
e 52 56
e 52 58
e 52 78
e 53 12
e 53 26
e 53 27
e 53 57
e 53 70
e 53 77
e 54 41
e 54 50
e 54 51
e 54 56
e 54 61
e 54 78
e 55 34
e 55 44
e 55 48
e 55 69
e 55 71
e 55 74
e 56 14
e 56 24
e 56 36
e 56 40
e 56 71
e 56 79
e 57 6
e 57 6
e 57 21
e 57 30
e 57 44
e 57 76
e 58 30
e 58 49
e 58 52
e 58 52
e 58 55
e 58 70
e 59 30
e 59 32
e 59 33
e 59 44
e 59 64
e 59 72
e 60 7
e 60 24
e 60 27
e 60 45
e 60 49
e 60 78
e 61 3
e 61 4
e 61 16
e 61 37
e 61 39
e 61 71
e 62 21
e 62 50
e 62 64
e 62 69
e 62 72
e 62 77
e 63 25
e 63 28
e 63 57
e 63 58
e 63 69
e 63 75
e 64 8
e 64 34
e 64 39
e 64 43
e 64 49
e 64 73
e 65 13
e 65 16
e 65 16
e 65 27
e 65 31
e 65 51
e 66 30
e 66 32
e 66 43
e 66 53
e 66 54
e 66 78
e 67 37
e 67 49
e 67 58
e 67 72
e 67 79
e 67 79
e 68 13
e 68 18
e 68 40
e 68 67
e 68 74
e 68 77
e 69 2
e 69 26
e 69 34
e 69 36
e 69 67
e 69 68
e 70 2
e 70 8
e 70 50
e 70 73
e 70 77
e 70 80
e 71 30
e 71 55
e 71 58
e 71 61
e 71 62
e 71 79
e 72 29
e 72 33
e 72 47
e 72 53
e 72 62
e 72 63
e 73 1
e 73 16
e 73 35
e 73 47
e 73 71
e 73 77
e 74 3
e 74 16
e 74 38
e 74 49
e 74 59
e 74 72
e 75 2
e 75 3
e 75 8
e 75 18
e 75 25
e 75 60
e 76 12
e 76 15
e 76 18
e 76 34
e 76 38
e 76 79
e 77 58
e 77 61
e 77 65
e 77 74
e 77 75
e 77 76
e 78 7
e 78 11
e 78 23
e 78 27
e 78 28
e 78 55
e 79 7
e 79 16
e 79 17
e 79 54
e 79 56
e 79 71
e 80 9
e 80 17
e 80 34
e 80 44
e 80 59
e 80 77
